
<<< setup

Tried aggregator 1 time.
LP Presolve eliminated 108 rows and 74 columns.
Reduced LP has 3 rows, 21 columns, and 21 nonzeros.
Presolve time = 0.00 sec. (0.04 ticks)

Iteration log . . .
Iteration:     1   Dual objective     =          1353.610276
main returns 0

<<< main


<<< done

